; --proof-with-sharing --index-fresh-sorts --proof-define-skolems --proof-prune --proof-merge --disable-print-success --disable-banner --max-time=30
(set-option :produce-proofs true)
(set-logic AUFLIA)
(declare-fun a_d () Bool)
(declare-fun b_d () Bool)
(assert (! (not (= (not (= a_d b_d)) (or (and a_d (not b_d)) (and b_d (not a_d))))) :named a0))
(check-sat)
;;;;;;(get-proof)
